NAME : CON3-6.4990488.tour
COMMENT : Cost = 0_4990488
COMMENT : Found by LKH [Keld Helsgaun] Sat Sep  9 21:17:07 2017
TYPE : TOUR
DIMENSION : 54
TOUR_SECTION
1
17
41
47
43
5
13
42
50
49
40
44
4
11
14
27
20
35
48
53
7
45
37
8
46
16
15
34
2
23
33
21
22
51
38
10
18
6
25
54
28
32
52
30
12
36
29
19
26
31
3
39
9
24
-1
EOF
